
<<<<<<< HEAD
Gurobi 11.0.3 (linux64) logging started Tue Oct 15 11:48:05 2024

Set parameter LogFile to value "resources/logs/6_t1_r1_T2.0.log"
Gurobi Optimizer version 11.0.3 build v11.0.3rc0 (linux64 - "Ubuntu 22.04.4 LTS")
=======
Gurobi 11.0.2 (linux64) logging started Tue Oct 29 14:44:35 2024

Set parameter LogFile to value "resources/logs/6_t1_r1_T2.0.log"
Set parameter MIPGap to value 1e-05
Set parameter Threads to value 4
Set parameter Heuristics to value 0
Gurobi Optimizer version 11.0.2 build v11.0.2rc0 (linux64 - "Ubuntu 22.04.3 LTS")

CPU model: 12th Gen Intel(R) Core(TM) i9-12900, instruction set [SSE2|AVX|AVX2]
Thread count: 12 physical cores, 24 logical processors, using up to 4 threads

Optimize a model with 7177 rows, 3610 columns and 44166 nonzeros
Model fingerprint: 0x9eb44de7
Variable types: 1988 continuous, 1622 integer (1200 binary)
Coefficient statistics:
  Matrix range     [2e-04, 7e+03]
  Objective range  [1e-08, 2e+00]
  Bounds range     [1e+00, 1e+00]
  RHS range        [1e-02, 1e+04]

User MIP start produced solution with objective 180.022 (0.02s)
User MIP start produced solution with objective 179.194 (0.02s)
Loaded user MIP start with objective 179.194

Presolve removed 4244 rows and 1558 columns
Presolve time: 0.07s
Presolved: 2933 rows, 2052 columns, 17234 nonzeros
Variable types: 867 continuous, 1185 integer (917 binary)

Root relaxation: objective 1.183082e+02, 2757 iterations, 0.10 seconds (0.22 work units)

    Nodes    |    Current Node    |     Objective Bounds      |     Work
 Expl Unexpl |  Obj  Depth IntInf | Incumbent    BestBd   Gap | It/Node Time

     0     0  118.30819    0  235  179.19379  118.30819  34.0%     -    0s
     0     0  118.32213    0  281  179.19379  118.32213  34.0%     -    0s
     0     0  118.33598    0  267  179.19379  118.33598  34.0%     -    0s
     0     0  118.33665    0  267  179.19379  118.33665  34.0%     -    0s
     0     0  118.34499    0  275  179.19379  118.34499  34.0%     -    0s
     0     0  118.34664    0  271  179.19379  118.34664  34.0%     -    0s
     0     0  118.35263    0  283  179.19379  118.35263  34.0%     -    0s
     0     0  118.35340    0  281  179.19379  118.35340  34.0%     -    0s
     0     0  118.35594    0  267  179.19379  118.35594  34.0%     -    0s
     0     0  118.35598    0  265  179.19379  118.35598  34.0%     -    0s
     0     0  118.35741    0  271  179.19379  118.35741  34.0%     -    0s
     0     0  118.36146    0  286  179.19379  118.36146  33.9%     -    0s
     0     0  118.36232    0  300  179.19379  118.36232  33.9%     -    0s
     0     0  118.36254    0  308  179.19379  118.36254  33.9%     -    0s
     0     0  118.36290    0  304  179.19379  118.36290  33.9%     -    0s
     0     0  118.36296    0  306  179.19379  118.36296  33.9%     -    0s
     0     0  118.36316    0  304  179.19379  118.36316  33.9%     -    0s
     0     0  118.36316    0  304  179.19379  118.36316  33.9%     -    0s
     0     2  118.36320    0  304  179.19379  118.36320  33.9%     -    0s
*  367   357             115     118.9709697  118.38449  0.49%   166    1s
*  571   478             123     118.9445927  118.38449  0.47%   136    2s
*  742   584              92     118.9380390  118.38453  0.47%   128    2s
H 1127   843                     118.9341277  118.39015  0.46%   125    4s
  1137   850  118.46515   41  253  118.93413  118.43362  0.42%   123    5s
H 1141   809                     118.8361406  118.44615  0.33%   123    5s
* 1308   849              44     118.7236708  118.46405  0.22%   170    8s
  1603   949  118.68478   48  171  118.72367  118.46405  0.22%   218   10s
* 3773  1729              69     118.7160673  118.52473  0.16%   212   14s
  4202  1898  118.65032   38  145  118.71607  118.52835  0.16%   204   15s
* 5179  2338              67     118.7159738  118.53754  0.15%   198   16s
* 5380  2320              42     118.7125013  118.54013  0.15%   197   16s
* 5381  2319              41     118.7119645  118.54013  0.14%   197   16s
* 5472  2358              53     118.7033673  118.54045  0.14%   197   17s
* 5474  2358              54     118.7033665  118.54045  0.14%   197   17s
  7514  2946  118.63051   40  135  118.70337  118.56152  0.12%   188   20s
* 9050  3268              58     118.7033658  118.57540  0.11%   184   22s
* 9628  3378              36     118.7033589  118.57906  0.10%   183   23s
 10807  3507     cutoff   29       118.70336  118.59042  0.10%   179   25s
 14757  3432  118.67624   44   96  118.70336  118.62522  0.07%   172   30s
 19691  2651  118.69570   37  117  118.70336  118.64951  0.05%   162   35s
*22445  1900              48     118.7033577  118.66105  0.04%   156   37s
 25144   286     cutoff   56       118.70336  118.68170  0.02%   152   40s

Cutting planes:
  Gomory: 9
  Cover: 8
  Implied bound: 10
  Projected implied bound: 15
  Clique: 4
  MIR: 80
  StrongCG: 5
  Flow cover: 109
  Flow path: 93
  Inf proof: 5
  Zero half: 33
  RLT: 2
  Relax-and-lift: 16

Explored 26383 nodes (3940979 simplex iterations) in 41.13 seconds (118.29 work units)
Thread count was 4 (of 24 available processors)

Solution count 10: 118.703 118.703 118.703 ... 118.724

Optimal solution found (tolerance 1.00e-05)
Best objective 1.187033577423e+02, best bound 1.187033577423e+02, gap 0.0000%

User-callback calls 58637, time in user-callback 0.04 sec

Gurobi 11.0.2 (linux64) logging started Tue Oct 29 14:45:40 2024

Set parameter LogFile to value "resources/logs/6_t1_r1_T2.0.log"
Set parameter MIPGap to value 1e-05
Set parameter Threads to value 4
Set parameter Heuristics to value 0
Gurobi Optimizer version 11.0.2 build v11.0.2rc0 (linux64 - "Ubuntu 22.04.3 LTS")
>>>>>>> 00fd3ba (upload project)

CPU model: 12th Gen Intel(R) Core(TM) i9-12900, instruction set [SSE2|AVX|AVX2]
Thread count: 12 physical cores, 24 logical processors, using up to 4 threads

Optimize a model with 5402 rows, 3610 columns and 36855 nonzeros
Model fingerprint: 0x44ac75cf
Variable types: 1988 continuous, 1622 integer (1200 binary)
Coefficient statistics:
  Matrix range     [7e-04, 7e+03]
  Objective range  [1e-08, 2e+00]
  Bounds range     [1e+00, 1e+00]
  RHS range        [9e-03, 1e+04]

User MIP start produced solution with objective 138.485 (0.01s)
Loaded user MIP start with objective 138.485

Presolve removed 3598 rows and 1787 columns
Presolve time: 0.06s
Presolved: 1804 rows, 1823 columns, 12379 nonzeros
Variable types: 789 continuous, 1034 integer (821 binary)

Root relaxation: objective 1.187661e+02, 1680 iterations, 0.04 seconds (0.08 work units)

    Nodes    |    Current Node    |     Objective Bounds      |     Work
 Expl Unexpl |  Obj  Depth IntInf | Incumbent    BestBd   Gap | It/Node Time

     0     0  118.76608    0  142  138.48478  118.76608  14.2%     -    0s
     0     0  118.80167    0  145  138.48478  118.80167  14.2%     -    0s
     0     0  118.80235    0  151  138.48478  118.80235  14.2%     -    0s
     0     0  118.80907    0  149  138.48478  118.80907  14.2%     -    0s
     0     0  118.81000    0  157  138.48478  118.81000  14.2%     -    0s
     0     0  118.81856    0  162  138.48478  118.81856  14.2%     -    0s
     0     0  118.81991    0  156  138.48478  118.81991  14.2%     -    0s
     0     0  118.82135    0  177  138.48478  118.82135  14.2%     -    0s
     0     0  118.82175    0  172  138.48478  118.82175  14.2%     -    0s
     0     0  118.82301    0  166  138.48478  118.82301  14.2%     -    0s
     0     0  118.82428    0  187  138.48478  118.82428  14.2%     -    0s
H    0     0                     119.3995209  118.82428  0.48%     -    0s
     0     0  118.82516    0  191  119.39952  118.82516  0.48%     -    0s
     0     0  118.82532    0  199  119.39952  118.82532  0.48%     -    0s
     0     0  118.83505    0  186  119.39952  118.83505  0.47%     -    0s
H    0     0                     119.2531235  118.83831  0.35%     -    0s
     0     0  118.83831    0  193  119.25312  118.83831  0.35%     -    0s
     0     0  118.84241    0  162  119.25312  118.84241  0.34%     -    0s
     0     0  118.84302    0  158  119.25312  118.84302  0.34%     -    0s
     0     0  118.84302    0  159  119.25312  118.84302  0.34%     -    0s
     0     0  118.84321    0  156  119.25312  118.84321  0.34%     -    0s
     0     0  118.84560    0  152  119.25312  118.84560  0.34%     -    0s
H    0     0                     119.0833993  118.84782  0.20%     -    0s
     0     0  118.84782    0  170  119.08340  118.84782  0.20%     -    0s
     0     0  118.84994    0  170  119.08340  118.84994  0.20%     -    0s
     0     0  118.84994    0  166  119.08340  118.84994  0.20%     -    0s
     0     0  118.84994    0  203  119.08340  118.84994  0.20%     -    0s
     0     0  118.84994    0  197  119.08340  118.84994  0.20%     -    0s
     0     0  118.85180    0  176  119.08340  118.85180  0.19%     -    0s
     0     0  118.85270    0  159  119.08340  118.85270  0.19%     -    0s
     0     0  118.88743    0  158  119.08340  118.88743  0.16%     -    0s
     0     0  118.88794    0  157  119.08340  118.88794  0.16%     -    0s
     0     0  118.90384    0  156  119.08340  118.90384  0.15%     -    0s
     0     0  118.90457    0  152  119.08340  118.90457  0.15%     -    0s
     0     0  118.90703    0  150  119.08340  118.90703  0.15%     -    0s
     0     0  118.90824    0  154  119.08340  118.90824  0.15%     -    0s
     0     0  118.91021    0  166  119.08340  118.91021  0.15%     -    0s
     0     0  118.91027    0  164  119.08340  118.91027  0.15%     -    0s
H    0     0                     119.0833732  118.91027  0.15%     -    0s
     0     0  118.91033    0  161  119.08337  118.91033  0.15%     -    0s
     0     0  118.91208    0  160  119.08337  118.91208  0.14%     -    0s
     0     0  118.91208    0  166  119.08337  118.91208  0.14%     -    0s
     0     0  118.91256    0  166  119.08337  118.91256  0.14%     -    0s
     0     2  118.91256    0  163  119.08337  118.91256  0.14%     -    0s
*  213    66              23     119.0833642  119.01288  0.06%  92.2    1s
*  293    74              35     119.0833546  119.02445  0.05%  90.4    1s
*  394    82              55     119.0833535  119.03779  0.04%  80.3    1s
*  539    29              34     119.0833534  119.06710  0.01%  74.3    1s
*  647     9              35     119.0833528  119.07574  0.01%  65.8    1s

Cutting planes:
  Learned: 1
  Gomory: 4
  Cover: 4
  Implied bound: 13
  Clique: 1
  MIR: 22
  StrongCG: 1
  Flow cover: 23
  Flow path: 27
  Inf proof: 2
  Zero half: 8
  Network: 1
  RLT: 4
  Relax-and-lift: 6

<<<<<<< HEAD
Explored 674 nodes (52421 simplex iterations) in 1.32 seconds (2.28 work units)
=======
Explored 674 nodes (52421 simplex iterations) in 1.31 seconds (2.28 work units)
>>>>>>> 00fd3ba (upload project)
Thread count was 4 (of 24 available processors)

Solution count 10: 119.083 119.083 119.083 ... 138.485

Optimal solution found (tolerance 1.00e-05)
Best objective 1.190833527678e+02, best bound 1.190833526551e+02, gap 0.0000%

<<<<<<< HEAD
Gurobi 11.0.3 (linux64) logging started Tue Oct 15 11:48:24 2024

Set parameter LogFile to value "resources/logs/6_t1_r1_T2.0.log"
Gurobi Optimizer version 11.0.3 build v11.0.3rc0 (linux64 - "Ubuntu 22.04.4 LTS")
=======
User-callback calls 2737, time in user-callback 0.00 sec

Gurobi 11.0.3 (linux64) logging started Tue Oct 29 14:45:50 2024

Set parameter LogFile to value "resources/logs/6_t1_r1_T2.0.log"
Set parameter MIPGap to value 1e-05
Set parameter Threads to value 4
Set parameter Heuristics to value 0
Gurobi Optimizer version 11.0.3 build v11.0.3rc0 (linux64 - "Ubuntu 22.04.3 LTS")
>>>>>>> 00fd3ba (upload project)

CPU model: 12th Gen Intel(R) Core(TM) i9-12900, instruction set [SSE2|AVX|AVX2]
Thread count: 12 physical cores, 24 logical processors, using up to 4 threads

Optimize a model with 5402 rows, 3610 columns and 36855 nonzeros
Model fingerprint: 0x44ac75cf
Variable types: 1988 continuous, 1622 integer (1200 binary)
Coefficient statistics:
  Matrix range     [7e-04, 7e+03]
  Objective range  [1e-08, 2e+00]
  Bounds range     [1e+00, 1e+00]
  RHS range        [9e-03, 1e+04]

User MIP start produced solution with objective 138.485 (0.01s)
Loaded user MIP start with objective 138.485

Presolve removed 3598 rows and 1787 columns
<<<<<<< HEAD
Presolve time: 0.06s
=======
Presolve time: 0.07s
>>>>>>> 00fd3ba (upload project)
Presolved: 1804 rows, 1823 columns, 12379 nonzeros
Variable types: 789 continuous, 1034 integer (821 binary)

Root relaxation: objective 1.187661e+02, 1680 iterations, 0.04 seconds (0.08 work units)

    Nodes    |    Current Node    |     Objective Bounds      |     Work
 Expl Unexpl |  Obj  Depth IntInf | Incumbent    BestBd   Gap | It/Node Time

     0     0  118.76608    0  142  138.48478  118.76608  14.2%     -    0s
     0     0  118.80167    0  145  138.48478  118.80167  14.2%     -    0s
     0     0  118.80235    0  151  138.48478  118.80235  14.2%     -    0s
     0     0  118.80907    0  149  138.48478  118.80907  14.2%     -    0s
     0     0  118.81000    0  157  138.48478  118.81000  14.2%     -    0s
     0     0  118.81856    0  162  138.48478  118.81856  14.2%     -    0s
     0     0  118.81991    0  156  138.48478  118.81991  14.2%     -    0s
     0     0  118.82135    0  177  138.48478  118.82135  14.2%     -    0s
     0     0  118.82175    0  172  138.48478  118.82175  14.2%     -    0s
     0     0  118.82301    0  166  138.48478  118.82301  14.2%     -    0s
     0     0  118.82428    0  187  138.48478  118.82428  14.2%     -    0s
H    0     0                     119.3995209  118.82428  0.48%     -    0s
     0     0  118.82516    0  191  119.39952  118.82516  0.48%     -    0s
     0     0  118.82532    0  199  119.39952  118.82532  0.48%     -    0s
     0     0  118.83505    0  186  119.39952  118.83505  0.47%     -    0s
H    0     0                     119.2531235  118.83831  0.35%     -    0s
     0     0  118.83831    0  193  119.25312  118.83831  0.35%     -    0s
     0     0  118.84241    0  162  119.25312  118.84241  0.34%     -    0s
     0     0  118.84302    0  158  119.25312  118.84302  0.34%     -    0s
     0     0  118.84302    0  159  119.25312  118.84302  0.34%     -    0s
     0     0  118.84321    0  156  119.25312  118.84321  0.34%     -    0s
     0     0  118.84560    0  152  119.25312  118.84560  0.34%     -    0s
H    0     0                     119.0833993  118.84782  0.20%     -    0s
     0     0  118.84782    0  170  119.08340  118.84782  0.20%     -    0s
     0     0  118.84994    0  170  119.08340  118.84994  0.20%     -    0s
     0     0  118.84994    0  166  119.08340  118.84994  0.20%     -    0s
     0     0  118.84994    0  203  119.08340  118.84994  0.20%     -    0s
     0     0  118.84994    0  197  119.08340  118.84994  0.20%     -    0s
     0     0  118.85180    0  176  119.08340  118.85180  0.19%     -    0s
     0     0  118.85270    0  159  119.08340  118.85270  0.19%     -    0s
     0     0  118.88743    0  158  119.08340  118.88743  0.16%     -    0s
     0     0  118.88794    0  157  119.08340  118.88794  0.16%     -    0s
     0     0  118.90384    0  156  119.08340  118.90384  0.15%     -    0s
     0     0  118.90457    0  152  119.08340  118.90457  0.15%     -    0s
     0     0  118.90703    0  150  119.08340  118.90703  0.15%     -    0s
     0     0  118.90824    0  154  119.08340  118.90824  0.15%     -    0s
     0     0  118.91021    0  166  119.08340  118.91021  0.15%     -    0s
     0     0  118.91027    0  164  119.08340  118.91027  0.15%     -    0s
H    0     0                     119.0833732  118.91027  0.15%     -    0s
     0     0  118.91033    0  161  119.08337  118.91033  0.15%     -    0s
     0     0  118.91208    0  160  119.08337  118.91208  0.14%     -    0s
     0     0  118.91208    0  166  119.08337  118.91208  0.14%     -    0s
     0     0  118.91256    0  166  119.08337  118.91256  0.14%     -    0s
     0     2  118.91256    0  163  119.08337  118.91256  0.14%     -    0s
*  213    66              23     119.0833642  119.01288  0.06%  92.2    1s
*  293    74              35     119.0833546  119.02445  0.05%  90.4    1s
*  394    82              55     119.0833535  119.03779  0.04%  80.3    1s
*  539    29              34     119.0833534  119.06710  0.01%  74.3    1s
*  647     9              35     119.0833528  119.07574  0.01%  65.8    1s

Cutting planes:
  Learned: 1
  Gomory: 4
  Cover: 4
  Implied bound: 13
  Clique: 1
  MIR: 22
  StrongCG: 1
  Flow cover: 23
  Flow path: 27
  Inf proof: 2
  Zero half: 8
  Network: 1
  RLT: 4
  Relax-and-lift: 6

<<<<<<< HEAD
Explored 674 nodes (52421 simplex iterations) in 1.30 seconds (2.28 work units)
=======
Explored 674 nodes (52421 simplex iterations) in 1.31 seconds (2.28 work units)
>>>>>>> 00fd3ba (upload project)
Thread count was 4 (of 24 available processors)

Solution count 10: 119.083 119.083 119.083 ... 138.485

Optimal solution found (tolerance 1.00e-05)
Best objective 1.190833527678e+02, best bound 1.190833526551e+02, gap 0.0000%
<<<<<<< HEAD
=======

User-callback calls 2739, time in user-callback 0.00 sec

Gurobi 11.0.3 (linux64) logging started Tue Oct 29 15:05:50 2024

Set parameter LogFile to value "resources/logs/6_t1_r1_T2.0.log"
Set parameter MIPGap to value 1e-05
Set parameter Threads to value 4
Set parameter Heuristics to value 0
Gurobi Optimizer version 11.0.3 build v11.0.3rc0 (linux64 - "Ubuntu 22.04.3 LTS")

CPU model: 12th Gen Intel(R) Core(TM) i9-12900, instruction set [SSE2|AVX|AVX2]
Thread count: 12 physical cores, 24 logical processors, using up to 4 threads

Optimize a model with 7955 rows, 3610 columns and 46618 nonzeros
Model fingerprint: 0xfe5a9bc0
Variable types: 1988 continuous, 1622 integer (1200 binary)
Coefficient statistics:
  Matrix range     [5e-05, 7e+03]
  Objective range  [1e-08, 2e+00]
  Bounds range     [1e+00, 1e+00]
  RHS range        [1e-03, 1e+04]

User MIP start produced solution with objective 142.392 (0.01s)
Loaded user MIP start with objective 142.392

Presolve removed 3996 rows and 1507 columns
Presolve time: 0.05s
Presolved: 3959 rows, 2103 columns, 20380 nonzeros
Variable types: 885 continuous, 1218 integer (932 binary)

Root relaxation: objective 1.037048e+02, 2770 iterations, 0.09 seconds (0.17 work units)

    Nodes    |    Current Node    |     Objective Bounds      |     Work
 Expl Unexpl |  Obj  Depth IntInf | Incumbent    BestBd   Gap | It/Node Time

     0     0  103.70477    0  197  142.39181  103.70477  27.2%     -    0s
     0     0  103.70769    0  274  142.39181  103.70769  27.2%     -    0s
     0     0  103.70970    0  266  142.39181  103.70970  27.2%     -    0s
     0     0  103.71382    0  266  142.39181  103.71382  27.2%     -    0s
     0     0  103.71722    0  286  142.39181  103.71722  27.2%     -    0s
     0     0  103.72357    0  280  142.39181  103.72357  27.2%     -    0s
     0     0  103.72539    0  286  142.39181  103.72539  27.2%     -    0s
     0     0  103.73441    0  288  142.39181  103.73441  27.1%     -    0s
     0     0  103.73531    0  288  142.39181  103.73531  27.1%     -    0s
     0     0  103.73746    0  251  142.39181  103.73746  27.1%     -    0s
H    0     0                     104.3459457  103.73810  0.58%     -    0s
     0     0  103.73810    0  262  104.34595  103.73810  0.58%     -    0s
     0     0  103.74575    0  273  104.34595  103.74575  0.58%     -    0s
     0     0  103.74652    0  277  104.34595  103.74652  0.57%     -    0s
     0     0  103.75107    0  273  104.34595  103.75107  0.57%     -    1s
     0     0  103.75161    0  283  104.34595  103.75161  0.57%     -    1s
     0     0  103.75274    0  285  104.34595  103.75274  0.57%     -    1s
     0     0  103.75342    0  301  104.34595  103.75342  0.57%     -    1s
     0     0  103.75511    0  300  104.34595  103.75511  0.57%     -    1s
     0     0  103.75553    0  278  104.34595  103.75553  0.57%     -    1s
     0     0  103.75865    0  331  104.34595  103.75865  0.56%     -    1s
H    0     0                     104.3226612  103.75954  0.54%     -    1s
     0     0  103.75954    0  340  104.32266  103.75954  0.54%     -    1s
     0     0  103.76115    0  293  104.32266  103.76115  0.54%     -    1s
H    0     0                     104.2360213  103.76160  0.46%     -    1s
     0     0  103.76160    0  323  104.23602  103.76160  0.46%     -    1s
     0     0  103.76369    0  291  104.23602  103.76369  0.45%     -    1s
     0     0  103.76419    0  296  104.23602  103.76419  0.45%     -    1s
     0     0  103.76522    0  317  104.23602  103.76522  0.45%     -    1s
     0     0  103.76540    0  320  104.23602  103.76540  0.45%     -    1s
     0     0  103.76628    0  309  104.23602  103.76628  0.45%     -    1s
     0     0  103.76679    0  292  104.23602  103.76679  0.45%     -    1s
     0     0  103.77074    0  306  104.23602  103.77074  0.45%     -    1s
     0     0  103.77285    0  308  104.23602  103.77285  0.44%     -    1s
     0     0  103.77370    0  308  104.23602  103.77370  0.44%     -    1s
     0     0  103.77409    0  320  104.23602  103.77409  0.44%     -    1s
     0     0  103.77513    0  311  104.23602  103.77513  0.44%     -    1s
H    0     0                     104.0636164  103.77545  0.28%     -    1s
     0     0  103.77545    0  328  104.06362  103.77545  0.28%     -    1s
     0     0  103.77732    0  308  104.06362  103.77732  0.28%     -    1s
     0     0  103.77759    0  315  104.06362  103.77759  0.27%     -    2s
     0     0  103.77933    0  320  104.06362  103.77933  0.27%     -    2s
     0     0  103.78033    0  316  104.06362  103.78033  0.27%     -    2s
     0     0  103.78059    0  315  104.06362  103.78059  0.27%     -    2s
     0     0  103.78102    0  321  104.06362  103.78102  0.27%     -    2s
H    0     0                     104.0587513  103.78102  0.27%     -    2s
H    0     0                     104.0587473  103.78102  0.27%     -    2s
     0     0  103.78360    0  317  104.05875  103.78360  0.26%     -    2s
     0     0  103.78542    0  293  104.05875  103.78542  0.26%     -    2s
     0     0  103.79373    0  316  104.05875  103.79373  0.25%     -    2s
     0     0  103.79606    0  316  104.05875  103.79606  0.25%     -    2s
     0     0  103.79631    0  315  104.05875  103.79631  0.25%     -    2s
     0     0  103.79654    0  311  104.05875  103.79654  0.25%     -    2s
H    0     0                     104.0581700  103.79654  0.25%     -    2s
H    0     0                     104.0581686  103.79654  0.25%     -    2s
     0     0  103.79667    0  297  104.05817  103.79667  0.25%     -    2s
     0     0  103.79674    0  302  104.05817  103.79674  0.25%     -    2s
     0     0  103.79727    0  311  104.05817  103.79727  0.25%     -    2s
     0     0  103.79749    0  307  104.05817  103.79749  0.25%     -    2s
     0     0  103.79777    0  309  104.05817  103.79777  0.25%     -    2s
     0     0  103.79792    0  302  104.05817  103.79792  0.25%     -    2s
     0     0  103.79792    0  309  104.05817  103.79792  0.25%     -    2s
     0     0  103.79798    0  271  104.05817  103.79798  0.25%     -    2s
     0     2  103.79816    0  260  104.05817  103.79816  0.25%     -    2s
*  392   311              37     104.0469636  103.80819  0.23%   176    4s
*  420   324              49     104.0469623  103.80819  0.23%   175    4s
   902   612     cutoff    7       104.04696  103.89365  0.15%   157    5s
*  984   575              85     104.0398319  103.89365  0.14%   154    5s

Cutting planes:
  Learned: 2
  Cover: 3
  Implied bound: 26
  Clique: 5
  MIR: 61
  StrongCG: 2
  Flow cover: 19
  Flow path: 210
  Inf proof: 1
  Zero half: 4
  RLT: 18
  Relax-and-lift: 15

Explored 2062 nodes (353926 simplex iterations) in 6.77 seconds (17.72 work units)
Thread count was 4 (of 24 available processors)

Solution count 10: 104.04 104.047 104.047 ... 104.323

Solve interrupted
Best objective 1.040398319017e+02, best bound 1.039448639454e+02, gap 0.0913%

User-callback calls 5827, time in user-callback 0.01 sec
>>>>>>> 00fd3ba (upload project)
